c FILE /home/rafael/Documents/HappySet/MIHS/inputs/happygen/output/graph_scale_free_k10_p0.3_v50_20241127_082514.txt
c SOURCE This is a scale-free graph formed for the happy graph colouring problem.
c DESCRIPTION It was generated using the problem generator of Rhyd Lewis
c
c GRAPH STATS
c Seed                             = -1552516450
c Number of Nodes                  = 50
c Number of colours k              = 10
c Number of pre-assignments        = 15
c Number of links per new node     = 5
c Density                          = 0.191837
c 
c The degrees of nodes 1 to 50, respectively, are as follows 
c [24, 24, 21, 19, 19, 18, 18, 15, 15, 15, 14, 13, 11, 10, 10, 10, 9, 9, 9, 9, 9, 8, 8, 7, 7, 7, 
c  7, 7, 7, 6, 6, 6, 6, 6, 6, 5, 5, 5, 5, 5, 5, 5, 5, 5, 5, 5, 5, 5, 5, 5] 
c  
p edge 50 235 10
e 1 2
e 1 3
e 1 4
e 1 6
e 1 7
e 1 8
e 1 9
e 1 10
e 1 11
e 1 12
e 1 13
e 1 14
e 1 15
e 1 21
e 1 28
e 1 30
e 1 33
e 1 35
e 1 36
e 1 39
e 1 40
e 1 41
e 1 43
e 1 46
e 2 3
e 2 4
e 2 5
e 2 6
e 2 7
e 2 8
e 2 11
e 2 12
e 2 13
e 2 18
e 2 19
e 2 20
e 2 22
e 2 24
e 2 26
e 2 29
e 2 31
e 2 32
e 2 35
e 2 37
e 2 41
e 2 45
e 2 49
e 3 4
e 3 5
e 3 6
e 3 7
e 3 8
e 3 11
e 3 14
e 3 17
e 3 19
e 3 22
e 3 25
e 3 26
e 3 28
e 3 30
e 3 32
e 3 37
e 3 38
e 3 42
e 3 47
e 4 5
e 4 6
e 4 7
e 4 8
e 4 10
e 4 12
e 4 14
e 4 15
e 4 17
e 4 25
e 4 29
e 4 34
e 4 35
e 4 38
e 4 47
e 4 50
e 5 6
e 5 7
e 5 10
e 5 11
e 5 15
e 5 19
e 5 20
e 5 22
e 5 25
e 5 26
e 5 31
e 5 34
e 5 37
e 5 39
e 5 43
e 5 48
e 6 7
e 6 8
e 6 9
e 6 10
e 6 12
e 6 15
e 6 16
e 6 17
e 6 21
e 6 30
e 6 33
e 6 44
e 6 48
e 7 12
e 7 14
e 7 17
e 7 18
e 7 20
e 7 21
e 7 22
e 7 26
e 7 31
e 7 36
e 7 46
e 7 48
e 8 9
e 8 10
e 8 14
e 8 17
e 8 18
e 8 21
e 8 24
e 8 30
e 8 39
e 8 46
e 9 12
e 9 13
e 9 14
e 9 15
e 9 19
e 9 24
e 9 25
e 9 27
e 9 29
e 9 32
e 9 44
e 9 45
e 10 28
e 10 29
e 10 32
e 10 40
e 10 41
e 10 42
e 10 43
e 10 44
e 10 47
e 10 48
e 11 12
e 11 16
e 11 18
e 11 20
e 11 23
e 11 33
e 11 36
e 11 37
e 11 39
e 11 49
e 12 22
e 12 27
e 12 28
e 12 30
e 12 31
e 12 33
e 13 20
e 13 22
e 13 27
e 13 38
e 13 39
e 13 41
e 13 44
e 13 45
e 14 16
e 14 24
e 14 36
e 14 46
e 15 21
e 15 27
e 15 34
e 15 38
e 15 45
e 16 17
e 16 22
e 16 23
e 16 38
e 16 44
e 16 46
e 16 47
e 17 18
e 17 20
e 17 32
e 18 19
e 18 23
e 18 26
e 18 47
e 19 24
e 19 25
e 19 34
e 19 37
e 20 31
e 20 41
e 20 42
e 21 23
e 21 36
e 21 43
e 21 48
e 22 45
e 23 25
e 23 33
e 23 40
e 23 43
e 24 27
e 24 35
e 25 42
e 26 29
e 26 40
e 27 28
e 27 50
e 28 42
e 28 49
e 29 49
e 29 50
e 30 35
e 31 49
e 32 40
e 33 34
e 34 50
e 35 50
n 12 3
n 15 1
n 17 8
n 19 2
n 23 4
n 24 2
n 26 7
n 30 3
n 36 1
n 38 1
n 41 7
n 44 6
n 47 5
n 48 10
n 50 9
